19 965
525 7 479 7 358 7 163 9 10 11 816 15 659 22
525 7 442 7 285 7 105 12
525 7 445 7 264 7 63 9 889 11 721 18
528 7 504 7 413 7 254 9 80 11 923 15 769 20
528 7 504 7 413 7 254 9 80 11 923 15 769 20
525 7 504 7 362 7 209 9 25 11 818 15 619 21
525 7 504 7 362 7 209 9 25 11 818 15 619 21
525 7 504 7 362 7 209 9 25 11 818 15 619 21
535 8 492 8 400 9 235 10 72 14 905 18 837 25 708 80
525 7 482 7 365 7 212 9 29 11 823 18
525 7 505 7 381 7 219 9 28 11 852 15 669 21
525 7 445 7 264 7 63 9 889 11 721 18
525 7 445 7 264 7 63 9 889 11 721 18
525 7 482 7 365 7 115 9 943 13
525 7 502 7 412 7 255 9 80 11 874 18
525 7 502 7 412 7 255 9 80 11 874 18
525 7 476 7 354 7 155 9 5 11 838 15 650 20 567 28
525 7 479 7 355 7 106 9 927 13
525 7 477 7 390 7 241 9 75 11 912 15 777 22
